Route #1: 13 12 22 4 26 32 43
Route #2: 50 17 57 52 31 60 11 44
Route #3: 34 35 18 48 16 1 28 39
Route #4: 58 29 36 21 27 56 47 9
Route #5: 24 40 53 8 6 20 25
Route #6: 41 5 54 46 2 49
Route #7: 14 23 7 19 51
Route #8: 15 38 3
Route #9: 10 59 45 37 30 42 33 55
Cost 1038
Time 0.1016
